\ Model MP_copy
\ LP format - for model browsing. Use MPS format to capture full model detail.
Minimize
 
Subject To
 cons_13_0_0: Y[0,0] <= 5
 feasibility_cut_2_0_0: - X[0,0,3] - X[0,0,5] - X[0,0,6] - X[0,0,7]
   - X[0,0,9] + Y[0,0] >= 1
 patient_3: X[0,0,3] = 1
 patient_5: X[0,0,5] = 1
 patient_6: X[0,0,6] = 1
 patient_7: X[0,0,7] = 1
 patient_9: X[0,0,9] = 1
Bounds
 Y[0,0] free
Binaries
 X[0,0,3] X[0,0,5] X[0,0,6] X[0,0,7] X[0,0,9]
Generals
 Y[0,0]
End
